NAME : local_3
TYPE : ATSP
DIMENSION : 11
EDGE_WEIGHT_TYPE : EXPLICIT
EDGE_WEIGHT_FORMAT : FULL_MATRIX
EDGE_WEIGHT_SECTION
0 10000000 872 10000000 971 503 268 622 10000000 10000000 10000000 
0 0 969 10000000 10000000 10000000 783 780 363 625 276 
0 969 0 331 501 873 916 10000000 720 10000000 860 
0 10000000 331 0 371 1011 10000000 10000000 10000000 10000000 10000000 
0 10000000 501 371 0 929 10000000 10000000 10000000 10000000 10000000 
0 10000000 873 918 845 0 764 10000000 10000000 10000000 10000000 
0 783 916 10000000 10000000 764 0 410 860 985 888 
0 780 10000000 10000000 10000000 10000000 410 0 948 692 915 
0 363 720 10000000 10000000 10000000 860 948 0 903 143 
0 625 10000000 10000000 10000000 10000000 985 692 903 0 780 
0 276 860 10000000 10000000 10000000 888 915 143 780 0 
EOF